(set-logic QF_S)
(declare-fun var0 () String)
(assert (str.in.re var0 (re.++ (re.+ (re.union (str.to.re "00") (str.to.re "1"))) (re.++ (re.+ (re.* (str.to.re "222"))) (re.++ (re.+ (re.+ (str.to.re "33"))) (re.++ (re.* (re.* (str.to.re "44"))) (re.++ (re.+ (re.* (str.to.re "55"))) (re.++ (re.union (re.+ (str.to.re "666")) (re.+ (str.to.re "777"))) (re.++ (re.* (re.+ (str.to.re "888"))) (re.++ (re.* (re.+ (str.to.re "999"))) (re.++ (re.+ (re.* (str.to.re "a"))) (re.++ (re.union (re.* (str.to.re "bbb")) (re.* (str.to.re "cc"))) (re.++ (re.+ (re.* (str.to.re "d"))) (re.++ (re.* (re.+ (str.to.re "e"))) (re.++ (re.* (re.+ (str.to.re "fff"))) (re.++ (re.+ (re.* (str.to.re "ggg"))) (re.++ (re.+ (re.+ (str.to.re "hhh"))) (re.++ (re.* (re.* (str.to.re "iii"))) (re.++ (re.union (re.union (str.to.re "jjj") (str.to.re "kkk")) (re.union (str.to.re "ll") (str.to.re "mm"))) (re.++ (re.* (re.* (str.to.re "n"))) (re.++ (re.+ (re.+ (str.to.re "o"))) (re.++ (re.union (re.+ (str.to.re "p")) (re.+ (str.to.re "qqq"))) (re.++ (re.* (re.union (str.to.re "rrr") (str.to.re "s"))) (re.++ (re.union (re.* (str.to.re "t")) (re.* (str.to.re "uu"))) (re.++ (re.+ (re.* (str.to.re "vvv"))) (re.++ (re.* (re.+ (str.to.re "www"))) (re.++ (re.union (re.union (str.to.re "xx") (str.to.re "yy")) (re.union (str.to.re "zzz") (str.to.re "A"))) (re.++ (re.* (re.union (str.to.re "B") (str.to.re "CCC"))) (re.++ (re.+ (re.union (str.to.re "D") (str.to.re "EE"))) (re.++ (re.+ (re.union (str.to.re "F") (str.to.re "GGG"))) (re.++ (re.union (re.+ (str.to.re "H")) (re.+ (str.to.re "II"))) (re.++ (re.+ (re.+ (str.to.re "J"))) (re.++ (re.union (re.union (str.to.re "KKK") (str.to.re "LL")) (re.union (str.to.re "MMM") (str.to.re "NNN"))) (re.++ (re.+ (re.* (str.to.re "OOO"))) (re.++ (re.* (re.union (str.to.re "PP") (str.to.re "QQQ"))) (re.++ (re.union (re.* (str.to.re "R")) (re.* (str.to.re "SS"))) (re.++ (re.* (re.+ (str.to.re "TT"))) (re.++ (re.* (re.* (str.to.re "U"))) (re.++ (re.union (re.* (str.to.re "VVV")) (re.* (str.to.re "WW"))) (re.++ (re.* (re.union (str.to.re "XXX") (str.to.re "YY"))) (re.++ (re.+ (re.union (str.to.re "ZZ") (str.to.re "!!"))) (re.++ (re.+ (re.* (str.to.re """"""))) (re.++ (re.+ (re.* (str.to.re "###"))) (re.++ (re.union (re.+ (str.to.re "$$$")) (re.+ (str.to.re "%%%"))) (re.++ (re.+ (re.+ (str.to.re "&"))) (re.++ (re.* (re.+ (str.to.re "''"))) (re.++ (re.union (re.+ (str.to.re "(")) (re.+ (str.to.re ")"))) (re.++ (re.+ (re.+ (str.to.re "***"))) (re.++ (re.union (re.* (str.to.re "+")) (re.* (str.to.re ",,,"))) (re.++ (re.+ (re.union (str.to.re "-") (str.to.re ".."))) (re.++ (re.union (re.union (str.to.re "/") (str.to.re "::")) (re.union (str.to.re ";;;") (str.to.re "<"))) (re.++ (re.* (re.union (str.to.re "=") (str.to.re ">>"))) (re.++ (re.* (re.+ (str.to.re "?"))) (re.++ (re.+ (re.* (str.to.re "@@@"))) (re.++ (re.+ (re.union (str.to.re "[") (str.to.re "\\\\\\"))) (re.++ (re.* (re.+ (str.to.re "]]]"))) (re.++ (re.* (re.union (str.to.re "^") (str.to.re "_"))) (re.++ (re.union (re.union (str.to.re "`") (str.to.re "{{{")) (re.union (str.to.re "||") (str.to.re "}}}"))) (re.++ (re.union (re.+ (str.to.re "~~")) (re.+ (str.to.re "0"))) (re.++ (re.* (re.* (str.to.re "1"))) (re.++ (re.+ (re.union (str.to.re "222") (str.to.re "33"))) (re.++ (re.* (re.union (str.to.re "4") (str.to.re "555"))) (re.++ (re.union (re.union (str.to.re "666") (str.to.re "7")) (re.union (str.to.re "8") (str.to.re "999"))) (re.++ (re.+ (re.* (str.to.re "aaa"))) (re.++ (re.+ (re.union (str.to.re "bb") (str.to.re "c"))) (re.++ (re.+ (re.+ (str.to.re "dd"))) (re.++ (re.union (re.* (str.to.re "eee")) (re.* (str.to.re "f"))) (re.++ (re.union (re.* (str.to.re "gg")) (re.* (str.to.re "hhh"))) (re.++ (re.union (re.+ (str.to.re "iii")) (re.+ (str.to.re "jj"))) (re.++ (re.union (re.+ (str.to.re "kkk")) (re.+ (str.to.re "l"))) (re.++ (re.+ (re.union (str.to.re "mmm") (str.to.re "n"))) (re.++ (re.union (re.+ (str.to.re "ooo")) (re.+ (str.to.re "ppp"))) (re.++ (re.+ (re.union (str.to.re "q") (str.to.re "r"))) (re.++ (re.union (re.union (str.to.re "s") (str.to.re "ttt")) (re.union (str.to.re "u") (str.to.re "vv"))) (re.++ (re.+ (re.+ (str.to.re "ww"))) (re.++ (re.+ (re.+ (str.to.re "xx"))) (re.++ (re.union (re.* (str.to.re "yyy")) (re.* (str.to.re "z"))) (re.++ (re.* (re.+ (str.to.re "AA"))) (re.++ (re.+ (re.+ (str.to.re "BBB"))) (re.++ (re.union (re.* (str.to.re "C")) (re.* (str.to.re "DDD"))) (re.++ (re.+ (re.+ (str.to.re "EEE"))) (re.++ (re.+ (re.* (str.to.re "FFF"))) (re.++ (re.union (re.* (str.to.re "GGG")) (re.* (str.to.re "HHH"))) (re.++ (re.+ (re.* (str.to.re "III"))) (re.++ (re.union (re.* (str.to.re "J")) (re.* (str.to.re "K"))) (re.++ (re.* (re.union (str.to.re "LLL") (str.to.re "MMM"))) (re.++ (re.* (re.+ (str.to.re "NN"))) (re.++ (re.union (re.union (str.to.re "O") (str.to.re "P")) (re.union (str.to.re "QQQ") (str.to.re "RR"))) (re.++ (re.+ (re.+ (str.to.re "S"))) (re.++ (re.* (re.union (str.to.re "T") (str.to.re "U"))) (re.++ (re.union (re.* (str.to.re "VV")) (re.* (str.to.re "WWW"))) (re.++ (re.union (re.* (str.to.re "XXX")) (re.* (str.to.re "Y"))) (re.++ (re.* (re.union (str.to.re "Z") (str.to.re "!!!"))) (re.++ (re.union (re.+ (str.to.re """""""")) (re.+ (str.to.re "##"))) (re.++ (re.+ (re.* (str.to.re "$"))) (re.++ (re.* (re.union (str.to.re "%%") (str.to.re "&"))) (re.++ (re.+ (re.+ (str.to.re "''"))) (re.++ (re.union (re.union (str.to.re "(") (str.to.re ")))")) (re.union (str.to.re "*") (str.to.re "+"))) (re.++ (re.+ (re.union (str.to.re ",,,") (str.to.re "-"))) (re.++ (re.+ (re.+ (str.to.re "..."))) (re.++ (re.* (re.union (str.to.re "/") (str.to.re ":::"))) (re.++ (re.* (re.* (str.to.re ";;;"))) (re.++ (re.* (re.* (str.to.re "<"))) (re.++ (re.* (re.union (str.to.re "==") (str.to.re ">"))) (re.++ (re.union (re.+ (str.to.re "??")) (re.+ (str.to.re "@"))) (re.++ (re.* (re.* (str.to.re "[[["))) (re.++ (re.union (re.+ (str.to.re "\\\\\\")) (re.+ (str.to.re "]]"))) (re.++ (re.* (re.* (str.to.re "^"))) (re.++ (re.union (re.* (str.to.re "_")) (re.* (str.to.re "```"))) (re.++ (re.union (re.+ (str.to.re "{{{")) (re.+ (str.to.re "|"))) (re.++ (re.* (re.union (str.to.re "}") (str.to.re "~~~"))) (re.++ (re.* (re.+ (str.to.re "0"))) (re.++ (re.* (re.* (str.to.re "11"))) (re.++ (re.+ (re.union (str.to.re "22") (str.to.re "333"))) (re.++ (re.union (re.union (str.to.re "44") (str.to.re "555")) (re.union (str.to.re "66") (str.to.re "77"))) (re.++ (re.* (re.+ (str.to.re "888"))) (re.++ (re.+ (re.* (str.to.re "999"))) (re.++ (re.* (re.* (str.to.re "aa"))) (re.++ (re.+ (re.* (str.to.re "b"))) (re.++ (re.* (re.+ (str.to.re "ccc"))) (re.++ (re.union (re.union (str.to.re "d") (str.to.re "ee")) (re.union (str.to.re "fff") (str.to.re "gg"))) (re.++ (re.union (re.+ (str.to.re "hhh")) (re.+ (str.to.re "iii"))) (re.++ (re.* (re.union (str.to.re "j") (str.to.re "kkk"))) (re.++ (re.union (re.union (str.to.re "l") (str.to.re "mm")) (re.union (str.to.re "n") (str.to.re "oo"))) (re.++ (re.+ (re.+ (str.to.re "pp"))) (re.++ (re.+ (re.+ (str.to.re "qqq"))) (re.++ (re.* (re.union (str.to.re "rrr") (str.to.re "sss"))) (re.++ (re.* (re.* (str.to.re "tt"))) (re.++ (re.+ (re.* (str.to.re "uu"))) (re.++ (re.union (re.* (str.to.re "vv")) (re.* (str.to.re "ww"))) (re.++ (re.+ (re.union (str.to.re "xx") (str.to.re "yyy"))) (re.++ (re.union (re.union (str.to.re "z") (str.to.re "AA")) (re.union (str.to.re "BB") (str.to.re "CCC"))) (re.++ (re.* (re.union (str.to.re "DD") (str.to.re "EEE"))) (re.++ (re.* (re.union (str.to.re "FFF") (str.to.re "GG"))) (re.++ (re.union (re.+ (str.to.re "HHH")) (re.+ (str.to.re "I"))) (re.++ (re.union (re.+ (str.to.re "J")) (re.+ (str.to.re "KKK"))) (re.++ (re.union (re.* (str.to.re "LLL")) (re.* (str.to.re "MM"))) (re.++ (re.* (re.union (str.to.re "N") (str.to.re "O"))) (re.++ (re.union (re.* (str.to.re "P")) (re.* (str.to.re "QQ"))) (re.++ (re.union (re.* (str.to.re "RR")) (re.* (str.to.re "S"))) (re.++ (re.union (re.union (str.to.re "T") (str.to.re "UUU")) (re.union (str.to.re "V") (str.to.re "W"))) (re.++ (re.+ (re.+ (str.to.re "X"))) (re.++ (re.union (re.+ (str.to.re "YY")) (re.+ (str.to.re "ZZZ"))) (re.++ (re.* (re.union (str.to.re "!!") (str.to.re """"))) (re.++ (re.+ (re.+ (str.to.re "###"))) (re.++ (re.+ (re.+ (str.to.re "$"))) (re.++ (re.* (re.+ (str.to.re "%"))) (re.++ (re.union (re.+ (str.to.re "&&&")) (re.+ (str.to.re "'"))) (re.++ (re.+ (re.* (str.to.re "("))) (re.++ (re.* (re.+ (str.to.re "))"))) (re.++ (re.+ (re.union (str.to.re "**") (str.to.re "+"))) (re.++ (re.union (re.+ (str.to.re ",,,")) (re.+ (str.to.re "---"))) (re.++ (re.+ (re.union (str.to.re ".") (str.to.re "//"))) (re.++ (re.+ (re.union (str.to.re ":") (str.to.re ";;;"))) (re.++ (re.union (re.+ (str.to.re "<<<")) (re.+ (str.to.re "="))) (re.++ (re.* (re.union (str.to.re ">>") (str.to.re "??"))) (re.++ (re.+ (re.* (str.to.re "@"))) (re.++ (re.union (re.* (str.to.re "[")) (re.* (str.to.re "\\\\\\"))) (re.++ (re.union (re.* (str.to.re "]]")) (re.* (str.to.re "^^"))) (re.++ (re.union (re.+ (str.to.re "___")) (re.+ (str.to.re "``"))) (re.++ (re.union (re.+ (str.to.re "{")) (re.+ (str.to.re "|||"))) (re.++ (re.* (re.* (str.to.re "}"))) (re.++ (re.* (re.+ (str.to.re "~~"))) (re.++ (re.+ (re.+ (str.to.re "0"))) (re.++ (re.+ (re.+ (str.to.re "11"))) (re.++ (re.* (re.+ (str.to.re "2"))) (re.++ (re.union (re.+ (str.to.re "33")) (re.+ (str.to.re "4"))) (re.++ (re.+ (re.union (str.to.re "555") (str.to.re "6"))) (re.++ (re.+ (re.* (str.to.re "7"))) (re.++ (re.+ (re.+ (str.to.re "888"))) (re.++ (re.* (re.+ (str.to.re "99"))) (re.++ (re.union (re.union (str.to.re "a") (str.to.re "bb")) (re.union (str.to.re "ccc") (str.to.re "d"))) (re.++ (re.* (re.union (str.to.re "eee") (str.to.re "ff"))) (re.++ (re.* (re.union (str.to.re "g") (str.to.re "h"))) (re.++ (re.union (re.* (str.to.re "i")) (re.* (str.to.re "j"))) (re.++ (re.+ (re.+ (str.to.re "kkk"))) (re.++ (re.union (re.+ (str.to.re "l")) (re.+ (str.to.re "m"))) (re.++ (re.union (re.union (str.to.re "n") (str.to.re "ooo")) (re.union (str.to.re "pp") (str.to.re "qqq"))) (re.++ (re.* (re.* (str.to.re "rr"))) (re.++ (re.* (re.+ (str.to.re "ss"))) (re.++ (re.* (re.union (str.to.re "tt") (str.to.re "uuu"))) (re.++ (re.+ (re.+ (str.to.re "vv"))) (re.++ (re.* (re.union (str.to.re "www") (str.to.re "xxx"))) (re.++ (re.* (re.+ (str.to.re "y"))) (re.++ (re.+ (re.union (str.to.re "zz") (str.to.re "A"))) (re.++ (re.union (re.* (str.to.re "B")) (re.* (str.to.re "C"))) (re.++ (re.union (re.+ (str.to.re "DDD")) (re.+ (str.to.re "EEE"))) (re.++ (re.union (re.union (str.to.re "FFF") (str.to.re "GG")) (re.union (str.to.re "H") (str.to.re "II"))) (re.++ (re.* (re.* (str.to.re "JJ"))) (re.++ (re.union (re.+ (str.to.re "KKK")) (re.+ (str.to.re "L"))) (re.++ (re.* (re.union (str.to.re "MM") (str.to.re "NNN"))) (re.+ (re.union (str.to.re "OOO") (str.to.re "PP"))))))))))))))))))))))))))))))))))))))))))))))))))))))))))))))))))))))))))))))))))))))))))))))))))))))))))))))))))))))))))))))))))))))))))))))))))))))))))))))))))))))))))))))))))))))))))))))))))
(check-sat)